n = 37;
lu = [|-994, 1120
      |1161, 1356
      |740, 1229
      |-1224, 1215
      |143, 423
      |-928, 793
      |502, 1091
      |-215, 181
      |364, 449
      |-1167, -778
      |-997, 323
      |-1062, 857
      |-187, 110
      |401, 1286
      |935, 1038
      |130, 1249
      |-1230, 978
      |788, 1168
      |-496, 700
      |-1111, 338
      |-1338, -1334
      |720, 1317
      |-1088, 109
      |-448, 1006
      |-1273, -43
      |72, 791
      |-1281, -717
      |-1314, -477
      |-439, -93
      |722, 1291
      |-134, 1190
      |-1197, -211
      |-536, -253
      |-783, 602
      |-497, -278
      |1161, 1230
      |-1172, 428|];
